proyfinal/src/viki/013/andrea/andrea-localstore/experimentInOfficeAgust.take6/worker_6/cbd8ba0d-6de8-41ea-9c4c-d16926ccaf91.als.cnf.out
Reading from standard input... Use '--help' for help.
============================[ Problem Statistics ]=============================
|                                                                             |
|  Number of variables:         87638                                         |
|  Number of clauses:          161767                                         |
|  Parse time:                   0.04 s                                       |
|                                                                             |
============================[ Search Statistics ]==============================
| Conflicts |          ORIGINAL         |          LEARNT          | Progress |
|           |    Vars  Clauses Literals |    Limit  Clauses Lit/Cl |          |
===============================================================================
|       100 |   61981   103761   259221 |    38045      100     33 | 29.276 % |
|       250 |   61981   103761   259221 |    41850      250     71 | 29.276 % |
|       475 |   61981   103761   259221 |    46035      475     80 | 29.276 % |
|       812 |   61981   103761   259221 |    50638      812     68 | 29.276 % |
|      1318 |   61960   103639   258944 |    55702     1314     84 | 29.300 % |
|      2077 |   61940   103561   258757 |    61272     1499     75 | 29.323 % |
|      3216 |   61940   103561   258757 |    67400     2638     73 | 29.323 % |
|      4924 |   46956    60205   152638 |    74140     4061     59 | 46.421 % |
|      7486 |   46691    59204   150178 |    81554     5460     49 | 46.723 % |
===============================================================================
restarts              : 41
conflicts             : 9468           (8304 /sec)
decisions             : 31965          (0.00 % random) (28036 /sec)
propagations          : 13405317       (11757596 /sec)
conflict literals     : 430627         (44.22 % deleted)
Memory used           : 26.39 MB
CPU time              : 1.14014 s

UNSATISFIABLE
